************************************************************************
file with basedata            : j9032_.bas
initial value random generator: 4360
************************************************************************
projects                      :  1
jobs (incl. supersource/sink ):  92
horizon                       :  519
RESOURCES
  - renewable                 :  4   R
  - nonrenewable              :  0   N
  - doubly constrained        :  0   D
************************************************************************
PROJECT INFORMATION:
pronr.  #jobs rel.date duedate tardcost  MPM-Time
    1     90      0       78       39       78
************************************************************************
PRECEDENCE RELATIONS:
jobnr.    #modes  #successors   successors
   1        1          3           2   3   4
   2        1          3           5   7  16
   3        1          3           9  22  28
   4        1          3           6  20  44
   5        1          2          53  76
   6        1          2          11  62
   7        1          3           8  12  15
   8        1          2          24  58
   9        1          3          10  13  19
  10        1          2          45  50
  11        1          3          23  25  27
  12        1          3          14  18  32
  13        1          3          17  26  64
  14        1          1          46
  15        1          3          21  38  46
  16        1          3          27  35  36
  17        1          3          18  41  52
  18        1          3          31  33  37
  19        1          1          91
  20        1          2          30  43
  21        1          3          63  70  71
  22        1          1          48
  23        1          3          34  49  52
  24        1          1          63
  25        1          2          28  36
  26        1          3          39  43  73
  27        1          2          29  55
  28        1          1          86
  29        1          2          47  89
  30        1          2          54  56
  31        1          2          54  76
  32        1          1          57
  33        1          2          42  50
  34        1          3          40  60  75
  35        1          1          39
  36        1          1          85
  37        1          1          65
  38        1          1          69
  39        1          2          46  49
  40        1          2          42  84
  41        1          1          45
  42        1          2          51  83
  43        1          1          60
  44        1          2          65  73
  45        1          2          61  67
  46        1          1          71
  47        1          2          56  78
  48        1          3          50  67  68
  49        1          2          60  78
  50        1          2          81  82
  51        1          2          56  91
  52        1          3          65  66  70
  53        1          2          69  79
  54        1          1          72
  55        1          1          59
  56        1          2          77  82
  57        1          1          61
  58        1          2          62  80
  59        1          2          70  88
  60        1          3          67  71  77
  61        1          3          68  78  80
  62        1          1          68
  63        1          1          66
  64        1          2          72  74
  65        1          1          74
  66        1          3          76  79  87
  67        1          2          72  74
  68        1          1          79
  69        1          1          73
  70        1          1          91
  71        1          1          85
  72        1          2          80  83
  73        1          1          75
  74        1          1          87
  75        1          2          81  87
  76        1          2          77  84
  77        1          1          90
  78        1          1          82
  79        1          1          83
  80        1          2          81  84
  81        1          1          85
  82        1          1          88
  83        1          1          86
  84        1          1          86
  85        1          1          89
  86        1          2          89  90
  87        1          1          88
  88        1          1          90
  89        1          1          92
  90        1          1          92
  91        1          1          92
  92        1          0        
************************************************************************
REQUESTS/DURATIONS:
jobnr. mode duration  R 1  R 2  R 3  R 4
------------------------------------------------------------------------
  1      1     0       0    0    0    0
  2      1     9       9    8    1    3
  3      1     3       9    8    8   10
  4      1     7       1    5    9   10
  5      1     8       3    8    8    1
  6      1     5       2    4    5    8
  7      1     6       9    1    5    7
  8      1     5       4    5    1    8
  9      1     4       5    8    6    3
 10      1     8       3    5    5    6
 11      1     5       1    5    9    8
 12      1     1       2    8    9    6
 13      1     2       9   10    7    5
 14      1     2       8    1    9    7
 15      1    10       8    3    7    7
 16      1     2      10   10    4    7
 17      1    10      10    3    1    6
 18      1     9       1    9   10    7
 19      1    10      10    8    8    7
 20      1     7       2    3    4    2
 21      1    10       4    6    6    3
 22      1     4       3    2    4   10
 23      1     8       6    4    7    1
 24      1    10       4    1    1    5
 25      1     6       9    3    6    2
 26      1    10       4    7    1    2
 27      1     8      10    3   10    4
 28      1     1       5    3    8    3
 29      1     8       2    8    9    3
 30      1    10       1    3    7    8
 31      1     8       7    5    5    8
 32      1     6      10    5    1    3
 33      1     6      10    4    1    3
 34      1     9       8    1    2    2
 35      1     3       8    8    3   10
 36      1    10       8    2   10    7
 37      1     4       7    1    9    5
 38      1     1       3    5    6    7
 39      1     6       8    2   10    5
 40      1     7       9    9    9    1
 41      1     9       2    5    8    5
 42      1     8      10    1    8    4
 43      1     2       1    3    3    1
 44      1     6       1    5    3    2
 45      1     9       2    2    5    7
 46      1     5       7    9    4    8
 47      1    10       5    5    9    6
 48      1     2       6    1    8   10
 49      1     2       8   10    6    4
 50      1     6      10    2    5    6
 51      1     5       2    9    5    9
 52      1     2      10    4    2    9
 53      1     4       3    9   10    8
 54      1     6       4    4    3    7
 55      1     7       6    9    2    6
 56      1     3       5    4    4    2
 57      1     6       6    6    8    6
 58      1     7       2    5    5    9
 59      1     3       8    3    3    4
 60      1     4       4    4    8    6
 61      1     9       1    2    4    7
 62      1     1       9    9    7    3
 63      1     5       7    9    3    5
 64      1    10       6    2    6    2
 65      1     7       9    6    4    2
 66      1     5       8    9    6    1
 67      1     3       5    5    1    9
 68      1     8       2    9    2    7
 69      1     6       4    2    5    4
 70      1    10       1    6   10    4
 71      1     3       6    6    4    1
 72      1    10       5    6    8    7
 73      1    10       7    4    3   10
 74      1     4      10    2    4    9
 75      1    10       5    5    2    4
 76      1     7       2    8    3    3
 77      1     5       1    3    1    3
 78      1     4       2    5    9    8
 79      1     3       6    1    4   10
 80      1     2       5    9   10   10
 81      1     3       3    3    4    9
 82      1     3       4    7    2    2
 83      1    10       5    5    9    7
 84      1     5       8    7    1    6
 85      1     2       1    6    7    6
 86      1     9       9    9    9    5
 87      1     1       4    9    3    3
 88      1     2       9    1    1    6
 89      1     1       9    3    5   10
 90      1     2       4    6    4    5
 91      1     5       8   10    3    6
 92      1     0       0    0    0    0
************************************************************************
RESOURCEAVAILABILITIES:
  R 1  R 2  R 3  R 4
   79   80   91   81
************************************************************************
Job	#risk	Type	VL	mu	sigma	Type	VL	mu	sigma
9	2	3	0.05	3.75	0.1875	7	0.1	8.75	0.875
17	1	6	0.2	7.5	1.5
20	1	6	0.05	7.5	0.375
22	2	5	0.1	6.25	0.625	6	0.1	7.5	0.75
25	2	2	0.1	2.5	0.25	3	0.2	3.75	0.75
34	1	2	0.1	2.5	0.25
35	1	2	0.1	2.5	0.25
39	2	5	0.05	6.25	0.3125	7	0.05	8.75	0.4375
41	2	2	0.05	2.5	0.125	7	0.05	8.75	0.4375
42	1	8	0.05	10	0.5
48	2	7	0.05	8.75	0.4375	8	0.2	10	2
56	1	8	0.2	10	2
59	2	3	0.1	3.75	0.375	6	0.1	7.5	0.75
63	1	5	0.2	6.25	1.25
64	2	1	0.1	1.25	0.125	3	0.05	3.75	0.1875
67	2	3	0.05	3.75	0.1875	7	0.1	8.75	0.875
68	2	4	0.2	5	1	5	0.2	6.25	1.25
72	2	4	0.05	5	0.25	8	0.1	10	1
74	1	7	0.1	8.75	0.875
75	1	3	0.2	3.75	0.75
76	2	3	0.1	3.75	0.375	5	0.1	6.25	0.625
77	2	7	0.1	8.75	0.875	8	0.2	10	2
78	1	1	0.05	1.25	0.0625
80	1	7	0.1	8.75	0.875
84	2	5	0.05	6.25	0.3125	7	0.05	8.75	0.4375
85	1	2	0.05	2.5	0.125
90	2	2	0.05	2.5	0.125	5	0.05	6.25	0.3125
